#pLT is two-dimensional [i,r]=[component, individual]
#[i,*] means all data in row i.

param pLT := 
[1,*]
1  0    2  2    3  8    4  7    5  5    6  7    

[2,*]
1  1    2  6    3  5    4  3    5  5    6  6    
;